//Dat File

outFile="MPVSBPP_SET1_IT200_ITV1_NT2_TS3_WT1_VT1_REP1";
m=200;
o=96;
p=3;
numVTypes=3;

demand = [11, 9, 6, 4, 7, 5, 3, 4, 6, 2, 6, 7, 3, 6, 2, 6, 3, 3, 8, 3, 6, 6, 10, 8, 11, 6, 11, 7, 3, 11, 2, 3, 7, 8, 8, 8, 10, 5, 9, 6, 9, 11, 7, 1, 1, 6, 10, 5, 11, 11, 11, 11, 4, 4, 6, 3, 4, 2, 5, 8, 1, 9, 6, 6, 8, 4, 2, 6, 2, 4, 1, 6, 7, 7, 4, 6, 8, 7, 9, 1, 9, 11, 4, 3, 3, 3, 7, 5, 11, 2, 7, 9, 1, 7, 6, 1, 4, 9, 11, 7, 11, 3, 5, 7, 2, 10, 11, 7, 10, 8, 6, 9, 1, 4, 10, 11, 4, 3, 7, 2, 4, 6, 11, 6, 4, 3, 1, 10, 4, 2, 2, 5, 7, 1, 10, 3, 5, 4, 5, 4, 11, 9, 11, 2, 3, 2, 6, 2, 4, 4, 18, 17, 13, 18, 19, 14, 18, 14, 17, 14, 12, 14, 15, 12, 14, 15, 12, 15, 14, 19, 15, 16, 15, 19, 14, 14, 13, 12, 19, 18, 13, 18, 15, 19, 18, 19, 18, 16, 19, 12, 18, 18, 14, 14, 15, 19, 13, 12, 19, 19];
Depot_Cap = [30000, 30000, 30000];
Tarif = [10, 3, 7];
VeicVolume = [100, 150, 200];
VeicCost = [100, 120, 140];
VeicType = [1, 1, 1, 1, 1, 1, 1, 1, 1, 1, 1, 1, 1, 1, 1, 1, 1, 1, 1, 1, 1, 1, 1, 1, 1, 1, 1, 1, 1, 1, 1, 1, 2, 2, 2, 2, 2, 2, 2, 2, 2, 2, 2, 2, 2, 2, 2, 2, 2, 2, 2, 2, 2, 2, 2, 2, 2, 2, 2, 2, 2, 2, 2, 2, 3, 3, 3, 3, 3, 3, 3, 3, 3, 3, 3, 3, 3, 3, 3, 3, 3, 3, 3, 3, 3, 3, 3, 3, 3, 3, 3, 3, 3, 3, 3, 3];
Elect_vehicle = [[70, 100, 30], [70, 100, 30], [70, 100, 30], [70, 100, 30], [70, 100, 30], [70, 100, 30], [70, 100, 30], [70, 100, 30], [70, 100, 30], [70, 100, 30], [70, 100, 30], [70, 100, 30], [70, 100, 30], [70, 100, 30], [70, 100, 30], [70, 100, 30], [70, 100, 30], [70, 100, 30], [70, 100, 30], [70, 100, 30], [70, 100, 30], [70, 100, 30], [70, 100, 30], [70, 100, 30], [70, 100, 30], [70, 100, 30], [70, 100, 30], [70, 100, 30], [70, 100, 30], [70, 100, 30], [70, 100, 30], [70, 100, 30], [80, 120, 30], [80, 120, 30], [80, 120, 30], [80, 120, 30], [80, 120, 30], [80, 120, 30], [80, 120, 30], [80, 120, 30], [80, 120, 30], [80, 120, 30], [80, 120, 30], [80, 120, 30], [80, 120, 30], [80, 120, 30], [80, 120, 30], [80, 120, 30], [80, 120, 30], [80, 120, 30], [80, 120, 30], [80, 120, 30], [80, 120, 30], [80, 120, 30], [80, 120, 30], [80, 120, 30], [80, 120, 30], [80, 120, 30], [80, 120, 30], [80, 120, 30], [80, 120, 30], [80, 120, 30], [80, 120, 30], [80, 120, 30], [90, 140, 40], [90, 140, 40], [90, 140, 40], [90, 140, 40], [90, 140, 40], [90, 140, 40], [90, 140, 40], [90, 140, 40], [90, 140, 40], [90, 140, 40], [90, 140, 40], [90, 140, 40], [90, 140, 40], [90, 140, 40], [90, 140, 40], [90, 140, 40], [90, 140, 40], [90, 140, 40], [90, 140, 40], [90, 140, 40], [90, 140, 40], [90, 140, 40], [90, 140, 40], [90, 140, 40], [90, 140, 40], [90, 140, 40], [90, 140, 40], [90, 140, 40], [90, 140, 40], [90, 140, 40], [90, 140, 40], [90, 140, 40]];